;test regex ((01([2-69][1]\s?\d{3}\s?\d{4}$|[2-9][02-9][0-9]\s?\d{3}\s?\d{3}$)))|((02((0\s?[378]\s?(\d{3}|\d{4})\s?\d{4})|([3489]{1}\d{2}\s?\d{3})\s?\d{3})))
(declare-const X String)
(assert (str.in_re X (re.union (re.++ (str.to_re "01") (re.union (re.++ (re.++ (re.range "2" "69") (re.++ (str.to_re "1") (re.++ (re.opt (re.union (str.to_re " ") (re.union (str.to_re "\u{0b}") (re.union (str.to_re "\u{0a}") (re.union (str.to_re "\u{0d}") (re.union (str.to_re "\u{09}") (str.to_re "\u{0c}"))))))) (re.++ ((_ re.loop 3 3) (re.range "0" "9")) (re.++ (re.opt (re.union (str.to_re " ") (re.union (str.to_re "\u{0b}") (re.union (str.to_re "\u{0a}") (re.union (str.to_re "\u{0d}") (re.union (str.to_re "\u{09}") (str.to_re "\u{0c}"))))))) ((_ re.loop 4 4) (re.range "0" "9"))))))) (str.to_re "")) (re.++ (re.++ (re.range "2" "9") (re.++ (re.range "02" "9") (re.++ (re.range "0" "9") (re.++ (re.opt (re.union (str.to_re " ") (re.union (str.to_re "\u{0b}") (re.union (str.to_re "\u{0a}") (re.union (str.to_re "\u{0d}") (re.union (str.to_re "\u{09}") (str.to_re "\u{0c}"))))))) (re.++ ((_ re.loop 3 3) (re.range "0" "9")) (re.++ (re.opt (re.union (str.to_re " ") (re.union (str.to_re "\u{0b}") (re.union (str.to_re "\u{0a}") (re.union (str.to_re "\u{0d}") (re.union (str.to_re "\u{09}") (str.to_re "\u{0c}"))))))) ((_ re.loop 3 3) (re.range "0" "9")))))))) (str.to_re "")))) (re.++ (str.to_re "02") (re.union (re.++ (str.to_re "0") (re.++ (re.opt (re.union (str.to_re " ") (re.union (str.to_re "\u{0b}") (re.union (str.to_re "\u{0a}") (re.union (str.to_re "\u{0d}") (re.union (str.to_re "\u{09}") (str.to_re "\u{0c}"))))))) (re.++ (str.to_re "378") (re.++ (re.opt (re.union (str.to_re " ") (re.union (str.to_re "\u{0b}") (re.union (str.to_re "\u{0a}") (re.union (str.to_re "\u{0d}") (re.union (str.to_re "\u{09}") (str.to_re "\u{0c}"))))))) (re.++ (re.union ((_ re.loop 3 3) (re.range "0" "9")) ((_ re.loop 4 4) (re.range "0" "9"))) (re.++ (re.opt (re.union (str.to_re " ") (re.union (str.to_re "\u{0b}") (re.union (str.to_re "\u{0a}") (re.union (str.to_re "\u{0d}") (re.union (str.to_re "\u{09}") (str.to_re "\u{0c}"))))))) ((_ re.loop 4 4) (re.range "0" "9")))))))) (re.++ (re.++ ((_ re.loop 1 1) (str.to_re "3489")) (re.++ ((_ re.loop 2 2) (re.range "0" "9")) (re.++ (re.opt (re.union (str.to_re " ") (re.union (str.to_re "\u{0b}") (re.union (str.to_re "\u{0a}") (re.union (str.to_re "\u{0d}") (re.union (str.to_re "\u{09}") (str.to_re "\u{0c}"))))))) ((_ re.loop 3 3) (re.range "0" "9"))))) (re.++ (re.opt (re.union (str.to_re " ") (re.union (str.to_re "\u{0b}") (re.union (str.to_re "\u{0a}") (re.union (str.to_re "\u{0d}") (re.union (str.to_re "\u{09}") (str.to_re "\u{0c}"))))))) ((_ re.loop 3 3) (re.range "0" "9")))))))))
; sanitize danger characters:  < > ' " &
(assert (not (str.in_re X (re.++ re.all (re.union (str.to_re "\u{3c}") (str.to_re "\u{3e}") (str.to_re "\u{27}") (str.to_re "\u{22}") (str.to_re "\u{26}")) re.all))))
(assert (< 9 (str.len X)))
(check-sat)
(get-model)